%datafile

NAceitesVegetales = 2;
NAceitesNoVegetales = 3;

Meses = 6;

K = 3;

T = 48;

Precios = [| 110, 120, 130, 110, 115
           | 130, 130, 110, 90, 115
           | 110, 140, 130, 100, 95
           | 120, 110, 120, 120, 125
           | 100, 120, 150, 110, 105
           | 90, 100, 140, 80, 135 |];

PreciosMensual = [150, 120, 130, 180, 20, 160];

MAXV = 200;
MAXN = 250;

MCAP = 1000;
MCAPR = 33;

CA = 2;
CAR = 4;

MinD = 3.0;
MaxD = 6.0;

Durezas = [8.8, 6.1, 2.0, 4.2, 5.0];

RestanteFinal = [11, 3, 7, 9, 12];

AceitesAUsar = [| false, false, false, false, true
                | false, false, false, false, true
                | false, false, false, false, false
                | false, false, false, false, false
                | false, false, false, false, false |];

MinB = 90000;